2463.75 0
0 52 57 56 38 47 36 31 46 59 0
0 16 100 6 8 9 2 1 10 95 98 94 88 0
0 27 21 7 4 3 97 99 0
0 26 89 93 15 0
0 61 55 62 35 45 49 68 66 50 87 82 81 85 13 0
0 12 5 23 17 20 18 24 22 19 65 83 84 86 0
0 25 58 67 41 33 40 39 28 30 51 14 0
0 11 91 96 90 92 0
0 53 37 42 34 48 80 69 74 75 73 0
0 70 72 71 77 78 79 76 0
0 64 60 29 44 32 54 43 63 0